NAME : XML100_3356_17
DIMENSION : 101
NB_CLUSTERS : 5
CLUSTERING_ALG : DBSCAN
CLUSTERING_PARAMS : eps(135), minSamples(3)
CLUSTERS
1 0
2 1 5 7 8 9 10 11 16 19 20 22 24 25 26 27 28 30 31 33 34 35 36 37 40 41 43 44 45 46 47 48 49 50 52 53 54 56 57 58 60 62 63 64 66 69 71 74 75 77 78 79 80 81 82 84 85 86 87 88 89 90 92 94 97 100
3 2 3 6 13 15 29 39 42 51 67 68 70 73 76 83 91 98
4 4 17 21 32 55 61 93 96
5 12 14 18 23 38 59 65 72 95 99
EOF